data/solutions/recovery/degenerate/moderate/flexible/degenerate_moderate_instance20/37.sol
Elapsed time: 5.78
Upper bound: 154314368.0
Planning weighted value: 2251125995.0
C[0]=154314368.0
C[1]=154277261.0
C[2]=154260684.0
C[3]=154097553.0
y[0]=2
y[1]=3
y[2]=1
y[3]=1
y[4]=3
y[5]=0
y[6]=2
y[7]=2
y[8]=1
y[9]=0
y[10]=0
y[11]=0
y[12]=1
y[13]=2
y[14]=1
y[15]=0
y[16]=1
y[17]=3
y[18]=0
y[19]=0
y[20]=3
y[21]=0
y[22]=3
y[23]=2
y[24]=3
y[25]=2
y[26]=2
y[27]=1
y[28]=3
y[29]=0
y[30]=2
y[31]=3
y[32]=3
y[33]=3
y[34]=1
y[35]=1
